decision_x1=[0,4];
decision_x2=[0,4];
decision_x3=[0,4];
decision_x4=[0,4];
decision_x5=[0,4];
decision_x6=[0,4];
decision_x7=[0,4];
decision_x8=[0,4];
random_y1=[0,4];
random_y2=[0,4];
random_y3=[0,4];
random_y4=[0,4];
constraint_x2_x1=[
0,1,2|
0,2,3.2|
0,3,6|
0,4,1.8|
1,0,6.7|
1,2,4.3|
1,3,3.9|
1,4,9.1|
2,0,5.8|
2,1,0.58|
2,3,6.4|
2,4,2|
3,0,4.7|
3,1,2.7|
3,2,3.8|
3,4,7.3|
4,0,8.5|
4,1,3.6|
4,2,8.1|
4,3,9.1|
];
constraint_x3_x1=[
0,1,1.5|
0,2,9.4|
0,3,8.8|
0,4,3|
1,0,0.64|
1,2,2.5|
1,3,3.8|
1,4,5.3|
2,0,5|
2,1,0.24|
2,3,2.9|
2,4,6.6|
3,0,6.3|
3,1,10|
3,2,5.4|
3,4,4.2|
4,0,1.5|
4,1,1.9|
4,2,2.6|
4,3,4|
];
constraint_x3_x2=[
0,1,6.7|
0,2,2.7|
0,3,8.4|
0,4,3.7|
1,0,5.6|
1,2,2.6|
1,3,3.5|
1,4,4.3|
2,0,2.2|
2,1,5.3|
2,3,4.8|
2,4,7.7|
3,0,9.4|
3,1,0.59|
3,2,5.2|
3,4,3.6|
4,0,2.7|
4,1,8.1|
4,2,10|
4,3,9.4|
];
constraint_x4_x2=[
0,1,1|
0,2,4.7|
0,3,6.6|
0,4,3.5|
1,0,9|
1,2,2.8|
1,3,7.5|
1,4,7.1|
2,0,7.3|
2,1,5.2|
2,3,8.5|
2,4,7.8|
3,0,2.1|
3,1,7.3|
3,2,7|
3,4,7.1|
4,0,5|
4,1,3.8|
4,2,6.6|
4,3,8.3|
];
constraint_x5_x2=[
0,1,9.8|
0,2,3.7|
0,3,10|
0,4,0.51|
1,0,3.5|
1,2,4.8|
1,3,8.3|
1,4,1.9|
2,0,7.1|
2,1,9.5|
2,3,4.3|
2,4,3.9|
3,0,9.6|
3,1,1.5|
3,2,8.1|
3,4,1.9|
4,0,2.5|
4,1,7.2|
4,2,7.5|
4,3,2.1|
];
constraint_x6_x2=[
0,1,2.4|
0,2,1.6|
0,3,5.8|
0,4,6.7|
1,0,2.7|
1,2,5.2|
1,3,7.1|
1,4,7.7|
2,0,1.6|
2,1,2.5|
2,3,5.7|
2,4,3.5|
3,0,6|
3,1,3.9|
3,2,9.6|
3,4,7.8|
4,0,8.4|
4,1,1.4|
4,2,4|
4,3,7.7|
];
constraint_x6_x3=[
0,1,7.3|
0,2,6|
0,3,9.8|
0,4,3.5|
1,0,7.4|
1,2,0.72|
1,3,3.3|
1,4,2.9|
2,0,4.7|
2,1,6.1|
2,3,0.086|
2,4,7.5|
3,0,1.3|
3,1,0.13|
3,2,7.7|
3,4,8.7|
4,0,6|
4,1,9.8|
4,2,0.83|
4,3,1.8|
];
constraint_x6_x5=[
0,1,7.2|
0,2,7.6|
0,3,0.83|
0,4,8.3|
1,0,6.2|
1,2,7.4|
1,3,7.6|
1,4,3.8|
2,0,0.44|
2,1,4.4|
2,3,0.47|
2,4,9.7|
3,0,2.9|
3,1,2.1|
3,2,9.3|
3,4,1.4|
4,0,7.7|
4,1,0.7|
4,2,4.1|
4,3,0.4|
];
constraint_x7_x1=[
0,1,7.5|
0,2,7.8|
0,3,1|
0,4,9.6|
1,0,1.9|
1,2,5.6|
1,3,2.5|
1,4,5.3|
2,0,2.2|
2,1,7.1|
2,3,10|
2,4,5.1|
3,0,3.6|
3,1,4.2|
3,2,8.2|
3,4,1.6|
4,0,0.26|
4,1,3.1|
4,2,4.4|
4,3,2.4|
];
constraint_x7_x4=[
0,1,1.1|
0,2,0.82|
0,3,6.3|
0,4,6|
1,0,4.6|
1,2,8.9|
1,3,7.6|
1,4,7.8|
2,0,0.31|
2,1,0.097|
2,3,8.7|
2,4,8.2|
3,0,0.18|
3,1,2.7|
3,2,2.4|
3,4,4|
4,0,2.5|
4,1,8.6|
4,2,1.6|
4,3,3.3|
];
constraint_x8_x3=[
0,1,4.4|
0,2,2.3|
0,3,3.2|
0,4,9|
1,0,9.3|
1,2,4.5|
1,3,7.9|
1,4,2.3|
2,0,9|
2,1,8.3|
2,3,7.4|
2,4,8.6|
3,0,4.3|
3,1,6.2|
3,2,9.8|
3,4,4.6|
4,0,7.3|
4,1,5.5|
4,2,1.8|
4,3,6.7|
];
constraint_x8_x4=[
0,1,2.8|
0,2,2.4|
0,3,8.9|
0,4,1.2|
1,0,0.69|
1,2,9.6|
1,3,8.2|
1,4,9.6|
2,0,0.92|
2,1,2.9|
2,3,3.3|
2,4,2.6|
3,0,1.2|
3,1,7.1|
3,2,8.6|
3,4,7.2|
4,0,3|
4,1,3.5|
4,2,9.3|
4,3,4|
];
constraint_x8_x6=[
0,1,7.4|
0,2,7.1|
0,3,3.5|
0,4,5.7|
1,0,4.4|
1,2,9.2|
1,3,5.8|
1,4,3.9|
2,0,3.7|
2,1,0.3|
2,3,3.3|
2,4,0.8|
3,0,0.1|
3,1,6.3|
3,2,6.5|
3,4,1.3|
4,0,9.8|
4,1,4.6|
4,2,9.7|
4,3,4.9|
];
constraint_x8_x7=[
0,1,6.1|
0,2,6.9|
0,3,1.2|
0,4,1.1|
1,0,9.8|
1,2,5.9|
1,3,3.8|
1,4,6.8|
2,0,1.2|
2,1,3.2|
2,3,5.7|
2,4,6.9|
3,0,0.75|
3,1,9.4|
3,2,7.2|
3,4,0.4|
4,0,3.6|
4,1,7.9|
4,2,3.3|
4,3,1.6|
];
constraint_x1_y1=[
0,0,4.5|
0,1,2.5|
0,2,7.7|
0,3,5.2|
0,4,2|
1,0,7.2|
1,1,2.5|
1,2,2.7|
1,3,6.4|
1,4,0.66|
2,0,9.7|
2,1,9.4|
2,2,1.4|
2,3,4.5|
2,4,1.3|
3,0,0.97|
3,1,1.4|
3,2,9.3|
3,3,5.9|
3,4,6.4|
4,0,1|
4,1,1.1|
4,2,7.9|
4,3,0.8|
4,4,1.7|
];
constraint_x2_y2=[
0,0,1.7|
0,1,2.9|
0,2,3.9|
0,3,3.6|
0,4,5.6|
1,0,8.4|
1,1,4.1|
1,2,3.9|
1,3,0.94|
1,4,8.9|
2,0,5.5|
2,1,3.3|
2,2,8|
2,3,9.5|
2,4,1.1|
3,0,8.2|
3,1,7.4|
3,2,2.9|
3,3,7.4|
3,4,8.1|
4,0,5.4|
4,1,3.3|
4,2,9.3|
4,3,7.3|
4,4,8.9|
];
constraint_x3_y3=[
0,0,3.1|
0,1,5.5|
0,2,5.7|
0,3,3.2|
0,4,8.1|
1,0,4.1|
1,1,5.3|
1,2,5.2|
1,3,3.2|
1,4,6.1|
2,0,8.8|
2,1,6.7|
2,2,3.1|
2,3,0.19|
2,4,1.3|
3,0,6.5|
3,1,1.1|
3,2,7.7|
3,3,7.7|
3,4,7.6|
4,0,3.3|
4,1,7.1|
4,2,0.29|
4,3,9.7|
4,4,3.6|
];
constraint_x4_y4=[
0,0,6.5|
0,1,8.9|
0,2,6.3|
0,3,3|
0,4,0.69|
1,0,2.3|
1,1,6.1|
1,2,0.89|
1,3,0.0015|
1,4,3.2|
2,0,4.9|
2,1,4.6|
2,2,5.9|
2,3,9.5|
2,4,8.8|
3,0,7.4|
3,1,3.2|
3,2,5.5|
3,3,1.8|
3,4,1.1|
4,0,2.7|
4,1,0.56|
4,2,7.9|
4,3,2.9|
4,4,6.3|
];
initial_distribution_y1=[0.39,0.25,0.23,0.12,0.018];
initial_distribution_y2=[0.013,0.45,0.34,0.11,0.086];
initial_distribution_y3=[0.27,0.11,0.052,0.16,0.41];
initial_distribution_y4=[0.14,0.11,0.14,0.29,0.32];
transition_y1=[
0.34,0.2,0.084,0.11,0.27|
0.15,0.0064,0.031,0.42,0.39|
0.16,0.23,0.2,0.17,0.24|
0.15,0.28,0.21,0.21,0.15|
0.3,0.01,0.097,0.26,0.33|
];
transition_y2=[
0.39,0.29,0.049,0.2,0.07|
0.099,0.11,0.38,0.11,0.3|
0.35,0.17,0.41,0.016,0.054|
0.085,0.25,0.24,0.062,0.36|
0.28,0.12,0.14,0.12,0.33|
];
transition_y3=[
0.17,0.26,0.2,0.27,0.098|
0.13,0.12,0.13,0.3,0.32|
0.12,0.29,0.13,0.27,0.19|
0.29,0.095,0.51,0.088,0.017|
0.34,0.3,0.3,0.025,0.035|
];
transition_y4=[
0.25,0.15,0.27,0.069,0.26|
0.078,0.38,0.1,0.4,0.035|
0.22,0.37,0.058,0.17,0.19|
0.21,0.18,0.27,0.33,0.0048|
0.062,0.16,0.25,0.29,0.23|
];
